AES/1_5_4/ssaes_r1-20_c5_rw1_e4_f0_k1-20_aes_canon_box_aes_mc_bidirectional/ExperimentMinisat_r16_k4cnf_2011-10-29-163302/Result
WARNING: for repeatability, setting FPU to use double precision
============================[ Problem Statistics ]=============================
|                                                                             |
|  Number of variables:          3004                                         |
|  Number of clauses:           17840                                         |
|  Parse time:                   0.01 s                                       |
|  Eliminated clauses:           0.03 Mb                                      |
|  Simplification time:          0.02 s                                       |
|                                                                             |
=============================[ Search Statistics ]==============================
| Conflicts  |          ORIGINAL         |          LEARNT          | Progress |
|            |    Vars  Clauses Literals |    Limit  Clauses Lit/Cl |          |
================================================================================
|        100 |    2464    16248    50432 |     5957      100     33 |  3.462 % |
|        250 |    2464    16248    50432 |     6553      250     37 |  3.462 % |
|        475 |    2464    16248    50432 |     7208      475     37 |  3.462 % |
|        812 |    2464    16248    50432 |     7929      812     37 |  3.462 % |
|       1318 |    2464    16248    50432 |     8722     1318     35 |  3.462 % |
|       2077 |    2464    16248    50432 |     9594     2077     37 |  3.462 % |
|       3216 |    2464    16248    50432 |    10554     3216     38 |  3.462 % |
|       4924 |    2464    16248    50432 |    11609     4924     37 |  3.462 % |
|       7486 |    2464    16248    50432 |    12770     7486     37 |  3.462 % |
|      11330 |    2464    16248    50432 |    14047    11330     37 |  3.462 % |
|      17096 |    2464    16248    50432 |    15452     9946     32 |  3.462 % |
|      25745 |    2464    16248    50432 |    16997    10764     31 |  3.462 % |
|      38719 |    2464    16248    50432 |    18697    15137     31 |  3.462 % |
|      58180 |    2464    16248    50432 |    20567    15672     29 |  3.462 % |
|      87372 |    2464    16248    50432 |    22623    13686     26 |  3.462 % |
|     131161 |    2464    16248    50432 |    24886    11776     21 |  3.462 % |
|     196845 |    2464    16248    50432 |    27375    14671     26 |  3.462 % |
|     295371 |    2464    16248    50432 |    30112    16554     26 |  3.462 % |
|     443160 |    2464    16248    50432 |    33123    27902     26 |  3.462 % |
|     664843 |    2464    16248    50432 |    36436    32930     26 |  3.462 % |
===============================================================================
restarts              : 1823
conflicts             : 854448         (4593 /sec)
decisions             : 943678         (0.00 % random) (5073 /sec)
propagations          : 1005612457     (5405422 /sec)
conflict literals     : 26579280       (66.72 % deleted)
Memory used           : 20.00 MB
CPU time              : 186.038 s

SATISFIABLE
